25 40
1 2 3
1 6 3
2 3 5
2 7 4
3 4 2
3 8 4
4 5 1
4 9 1
5 10 3
6 7 4
6 11 2
7 8 2
7 12 5
8 9 4
8 13 4
9 10 1
9 14 4
10 15 3
11 12 2
11 16 1
12 13 4
12 17 4
13 14 4
13 18 3
14 15 1
14 19 3
15 20 2
16 17 2
16 21 2
17 18 5
17 22 5
18 19 2
18 23 4
19 20 3
19 24 5
20 25 1
21 22 2
22 23 5
23 24 4
24 25 5
